NAME: tsp_222
COMMENT: Random TSP instance
TYPE: TSP
DIMENSION: 50
EDGE_WEIGHT_TYPE: EUC_2D
NODE_COORD_SECTION
1 645 326
2 718 13
3 584 377
4 253 381
5 821 871
6 675 391
7 440 525
8 915 489
9 236 215
10 987 703
11 373 756
12 264 869
13 204 186
14 434 81
15 409 898
16 222 32
17 905 580
18 857 0
19 363 466
20 852 826
21 849 676
22 609 447
23 878 432
24 894 687
25 563 328
26 465 441
27 460 116
28 790 577
29 325 337
30 317 256
31 311 193
32 455 226
33 181 592
34 14 715
35 662 998
36 185 775
37 202 757
38 668 573
39 367 179
40 391 154
41 143 189
42 624 526
43 737 634
44 193 746
45 86 766
46 580 452
47 736 667
48 763 88
49 396 689
50 253 419
